&CONTROL
      calculation = 'scf',
     restart_mode = 'from_scratch',
       pseudo_dir = './',
           outdir = './',
           prefix = 'graphene',
/
&SYSTEM
            ibrav = 4,
                a = 2.4223,
                c = 10
              nat = 2,
             ntyp = 1,
      occupations = 'smearing',
         smearing = 'methfessel-paxton',
          degauss = 0.02,
          ecutwfc = 60,
          ecutrho = 720,
             nbnd = 8,
/
&ELECTRONS
         conv_thr = 1.0d-10,
      mixing_mode = 'plain',
      mixing_beta = 0.7,
  diagonalization = 'cg',
/
ATOMIC_SPECIES
C 12.0107 C.pbe-rrkjus.UPF
ATOMIC_POSITIONS {crystal}
C  0.333333333  0.666666666  0.500000000
C  0.666666666  0.333333333  0.500000000
K_POINTS {automatic}
 42 42 1   0 0 0
