&BANDS
     prefix = 'graphene',
     filband = 'graphene.bands',
     outdir = './',
/
