&DOS
   outdir='./',
   prefix='graphene',
   fildos='graphene.dos',
/
